Optimal - objective value 3.00000000
      0 x_0_0                       1                       1
      2 x_1_1                       1                       0
      4 x_2_1                       1                       0
      9 x_3_3                       1                       1
     13 x_4_3                       1                       0
     15 x_5_0                       1                       0
     24 x_6_3                       1                       0
     31 x_7_3                       1                       0
     36 x_8_0                       1                       0
     45 x_9_0                       1                      -1
     55 x_10_0                      1                      -1
     67 x_11_1                      1                      -1
     79 x_12_1                      1                       0
     92 x_13_1                      1                       1
    106 x_14_1                      1                       0
    120 x_15_0                      1                       0
    136 x_16_0                      1                       0
    156 x_17_3                      1                       0
    174 x_18_3                      1                       0
    190 x_19_0                      1                       0
    211 x_20_1                      1                       0
    234 x_21_3                      1                       0
    254 x_22_1                      1                       0
    279 x_23_3                      1                       0
